c Result of efficient AIG-to-CNF conversion using package CNF
p cnf 760 2676
2 -3 741 0
2 -3 -618 733 0
-2 3 0
-2 618 -741 0
-2 -733 -741 0
-3 -4 294 615 0
-3 294 584 615 0
-3 -4 584 615 0
3 4 -294 0
3 -294 -584 0
3 -615 0
3 4 -584 0
-4 5 14 0
4 -5 0
4 -14 0
5 -751 -759 -7 0
5 -751 -759 -6 0
-5 751 0
-5 759 0
-5 6 7 0
6 -750 -758 0
-6 750 0
-6 758 0
7 -8 -11 0
-7 8 0
-7 11 0
-8 6 10 0
-8 9 10 0
-8 6 9 0
8 -6 -9 0
8 -9 -10 0
8 -6 -10 0
9 -751 -757 0
-9 751 0
-9 757 0
10 -749 -759 0
-10 749 0
-10 759 0
-11 -12 -13 0
-11 12 13 0
11 12 -13 0
11 -12 13 0
12 -750 -759 0
-12 750 0
-12 759 0
13 -751 -758 0
-13 751 0
-13 758 0
14 -15 -292 0
-14 15 0
-14 292 0
-15 16 41 0
15 -16 0
15 -41 0
16 -17 -40 0
-16 17 0
-16 40 0
-17 18 27 0
17 -18 0
17 -27 0
18 -19 -25 0
-18 19 0
-18 25 0
-19 20 21 0
19 -20 0
19 -21 0
20 -748 -751 -756 -759 0
-20 759 0
-20 748 0
-20 756 0
-20 751 0
21 -750 -757 -22 0
-21 750 0
-21 757 0
-21 22 0
22 23 -24 0
22 -23 24 0
-22 -23 -24 0
-22 23 24 0
23 -748 -759 0
-23 748 0
-23 759 0
24 -751 -756 0
-24 751 0
-24 756 0
25 6 -26 0
25 -6 26 0
-25 -6 -26 0
-25 6 26 0
26 9 -10 0
26 -9 10 0
-26 -9 -10 0
-26 9 10 0
27 -28 -39 0
-27 28 0
-27 39 0
-28 29 32 0
28 -29 0
28 -32 0
29 -749 -758 -30 0
-29 749 0
-29 758 0
-29 30 0
30 31 -22 0
30 -31 22 0
-30 -31 -22 0
-30 31 22 0
31 -750 -757 0
-31 750 0
-31 757 0
32 -33 -37 0
-32 33 0
-32 37 0
-33 34 36 0
-33 35 36 0
-33 34 35 0
33 -34 -35 0
33 -35 -36 0
33 -34 -36 0
34 -747 -759 0
-34 747 0
-34 759 0
35 -751 -755 0
-35 751 0
-35 755 0
36 -750 -756 0
-36 750 0
-36 756 0
37 38 -30 0
37 -38 30 0
-37 -38 -30 0
-37 38 30 0
38 -749 -758 0
-38 749 0
-38 758 0
39 19 -25 0
39 -19 25 0
-39 -19 -25 0
-39 19 25 0
40 -8 11 0
40 8 -11 0
-40 8 11 0
-40 -8 -11 0
41 -42 -291 0
-41 42 0
-41 291 0
-42 43 76 0
42 -43 0
42 -76 0
43 -44 -75 0
-43 44 0
-43 75 0
-44 45 54 0
44 -45 0
44 -54 0
45 -46 -53 0
-45 46 0
-45 53 0
-46 47 50 0
46 -47 0
46 -50 0
47 -748 -758 -48 0
-47 748 0
-47 758 0
-47 48 0
48 36 -49 0
48 -36 49 0
-48 -36 -49 0
-48 36 49 0
49 34 -35 0
49 -34 35 0
-49 -34 -35 0
-49 34 35 0
50 -749 -757 -51 0
-50 749 0
-50 757 0
-50 51 0
51 52 -48 0
51 -52 48 0
-51 -52 -48 0
-51 52 48 0
52 -748 -758 0
-52 748 0
-52 758 0
53 33 -37 0
53 -33 37 0
-53 -33 -37 0
-53 33 37 0
54 -55 -74 0
-54 55 0
-54 74 0
-55 56 62 0
55 -56 0
55 -62 0
56 -57 -60 0
-56 57 0
-56 60 0
-57 58 59 0
-57 751 58 0
-57 754 0
-57 751 59 0
57 -751 -754 -59 0
57 -751 -754 -58 0
57 -754 -58 -59 0
58 -746 -759 0
-58 746 0
-58 759 0
59 -750 -751 -752 -753 0
-59 753 0
-59 750 0
-59 752 0
-59 751 0
60 61 -51 0
60 -61 51 0
-60 -61 -51 0
-60 61 51 0
61 -749 -757 0
-61 749 0
-61 757 0
62 -63 -73 0
-62 63 0
-62 73 0
-63 64 70 0
63 -64 0
63 -70 0
64 -65 -66 0
-64 65 0
-64 66 0
65 -749 -756 0
-65 749 0
-65 756 0
66 67 -68 0
66 -67 68 0
-66 -67 -68 0
-66 67 68 0
67 -751 -754 0
-67 751 0
-67 754 0
68 58 -69 0
68 -58 69 0
-68 -58 -69 0
-68 58 69 0
69 -754 -59 0
-69 754 0
-69 59 0
70 -71 -72 0
-70 71 0
-70 72 0
71 -750 -755 0
-71 750 0
-71 755 0
72 65 -66 0
72 -65 66 0
-72 -65 -66 0
-72 65 66 0
73 57 -60 0
73 -57 60 0
-73 -57 -60 0
-73 57 60 0
74 46 -53 0
74 -46 53 0
-74 -46 -53 0
-74 46 53 0
75 28 -39 0
75 -28 39 0
-75 -28 -39 0
-75 28 39 0
76 -77 -290 0
-76 77 0
-76 290 0
-77 78 115 0
77 -78 0
77 -115 0
78 -79 -114 0
-78 79 0
-78 114 0
-79 80 89 0
79 -80 0
79 -89 0
80 -81 -88 0
-80 81 0
-80 88 0
-81 82 83 0
81 -82 0
81 -83 0
82 -747 -748 -757 -758 0
-82 758 0
-82 747 0
-82 757 0
-82 748 0
83 -84 -85 0
-83 84 0
-83 85 0
84 71 -72 0
84 -71 72 0
-84 -71 -72 0
-84 71 72 0
85 86 -87 0
85 -86 87 0
-85 -86 -87 0
-85 86 87 0
86 -748 -757 0
-86 748 0
-86 757 0
87 -747 -758 0
-87 747 0
-87 758 0
88 63 -73 0
88 -63 73 0
-88 -63 -73 0
-88 63 73 0
89 -90 -113 0
-89 90 0
-89 113 0
-90 91 104 0
90 -91 0
90 -104 0
91 -92 -103 0
-91 92 0
-91 103 0
-92 93 94 0
92 -93 0
92 -94 0
93 -746 -749 -755 -758 0
-93 758 0
-93 746 0
-93 755 0
-93 749 0
94 -95 -100 0
-94 95 0
-94 100 0
95 96 -97 0
95 -96 97 0
-95 -96 -97 0
-95 96 97 0
96 -745 -759 0
-96 745 0
-96 759 0
97 98 -99 0
97 -98 99 0
-97 -98 -99 0
-97 98 99 0
98 -748 -756 0
-98 748 0
-98 756 0
99 754 -59 0
99 -750 -754 59 0
-99 750 -754 0
-99 754 59 0
-99 -754 -59 0
100 101 -102 0
100 -101 102 0
-100 -101 -102 0
-100 101 102 0
101 -749 -755 0
-101 749 0
-101 755 0
102 -746 -758 0
-102 746 0
-102 758 0
103 84 -85 0
103 -84 85 0
-103 -84 -85 0
-103 84 85 0
104 -105 -112 0
-104 105 0
-104 112 0
-105 106 108 0
105 -106 0
105 -108 0
106 -747 -757 -107 0
-106 747 0
-106 757 0
-106 107 0
107 -751 -753 0
-107 751 0
-107 753 0
108 -109 -110 0
-108 109 0
-108 110 0
109 95 -100 0
109 -95 100 0
-109 -95 -100 0
-109 95 100 0
110 107 -111 0
110 -107 111 0
-110 -107 -111 0
-110 107 111 0
111 -747 -757 0
-111 747 0
-111 757 0
112 92 -103 0
112 -92 103 0
-112 -92 -103 0
-112 92 103 0
113 81 -88 0
113 -81 88 0
-113 -81 -88 0
-113 81 88 0
114 55 -74 0
114 -55 74 0
-114 -55 -74 0
-114 55 74 0
115 -116 -289 0
-115 116 0
-115 289 0
-116 117 159 0
116 -117 0
116 -159 0
117 -118 -158 0
-117 118 0
-117 158 0
-118 119 124 0
118 -119 0
118 -124 0
119 -120 -123 0
-119 120 0
-119 123 0
-120 121 122 0
120 -121 0
120 -122 0
121 -748 -756 -99 0
-121 748 0
-121 756 0
-121 99 0
122 -745 -759 -97 0
-122 745 0
-122 759 0
-122 97 0
123 105 -112 0
123 -105 112 0
-123 -105 -112 0
-123 105 112 0
124 -125 -157 0
-124 125 0
-124 157 0
-125 126 152 0
125 -126 0
125 -152 0
126 -127 -133 0
-126 127 0
-126 133 0
-127 128 130 0
127 -128 0
127 -130 0
128 -749 -754 -129 0
-128 749 0
-128 754 0
-128 129 0
129 -748 -755 0
-129 748 0
-129 755 0
130 -745 -758 -131 0
-130 745 0
-130 758 0
-130 131 0
131 132 -129 0
131 -132 129 0
-131 -132 -129 0
-131 132 129 0
132 -749 -754 0
-132 749 0
-132 754 0
-133 134 136 0
133 -134 0
133 -136 0
134 -744 -759 -135 0
-134 744 0
-134 759 0
-134 135 0
135 -746 -757 0
-135 746 0
-135 757 0
136 -137 -150 0
-136 137 0
-136 150 0
137 138 -141 0
137 -138 141 0
-137 -138 -141 0
-137 138 141 0
138 139 -140 0
138 -139 140 0
-138 -139 -140 0
-138 139 140 0
139 -750 -753 0
-139 750 0
-139 753 0
140 -751 -752 0
-140 751 0
-140 752 0
141 142 -143 0
141 -142 143 0
-141 -142 -143 0
-141 142 143 0
142 -747 -756 0
-142 747 0
-142 756 0
143 -749 -144 0
-143 749 0
-143 144 0
144 -145 -146 0
-144 145 0
-144 146 0
145 -748 -753 0
-145 748 0
-145 753 0
146 -747 -147 0
-146 747 0
-146 147 0
147 -148 -149 0
-147 148 0
-147 149 0
148 -746 -753 0
-148 746 0
-148 753 0
149 -744 -755 0
-149 744 0
-149 755 0
150 135 -151 0
150 -135 151 0
-150 -135 -151 0
-150 135 151 0
151 -744 -759 0
-151 744 0
-151 759 0
152 -153 -156 0
-152 153 0
-152 156 0
-153 154 155 0
153 -154 0
153 -155 0
154 -142 -143 0
-154 142 0
-154 143 0
155 -138 -141 0
-155 138 0
-155 141 0
156 -127 133 0
156 127 -133 0
-156 127 133 0
-156 -127 -133 0
157 120 -123 0
157 -120 123 0
-157 -120 -123 0
-157 120 123 0
158 90 -113 0
158 -90 113 0
-158 -90 -113 0
-158 90 113 0
159 -160 -288 0
-159 160 0
-159 288 0
-160 161 182 0
160 -161 0
160 -182 0
161 -162 -181 0
-161 162 0
-161 181 0
-162 163 166 0
162 -163 0
162 -166 0
163 -164 -165 0
-163 164 0
-163 165 0
164 109 -110 0
164 -109 110 0
-164 -109 -110 0
-164 109 110 0
165 153 -156 0
165 -153 156 0
-165 -153 -156 0
-165 153 156 0
166 -167 -180 0
-166 167 0
-166 180 0
-167 168 172 0
167 -168 0
167 -172 0
168 -169 -171 0
-168 169 0
-168 171 0
169 170 -131 0
169 -170 131 0
-169 -170 -131 0
-169 170 131 0
170 -745 -758 0
-170 745 0
-170 758 0
171 137 -150 0
171 -137 150 0
-171 -137 -150 0
-171 137 150 0
172 -173 -179 0
-172 173 0
-172 179 0
-173 174 175 0
173 -174 0
173 -175 0
174 -746 -747 -755 -756 0
-174 756 0
-174 746 0
-174 755 0
-174 747 0
175 -745 -757 -176 0
-175 745 0
-175 757 0
-175 176 0
176 177 -178 0
176 -177 178 0
-176 -177 -178 0
-176 177 178 0
177 -746 -756 0
-177 746 0
-177 756 0
178 -747 -755 0
-178 747 0
-178 755 0
179 169 -171 0
179 -169 171 0
-179 -169 -171 0
-179 169 171 0
180 164 -165 0
180 -164 165 0
-180 -164 -165 0
-180 164 165 0
181 125 -157 0
181 -125 157 0
-181 -125 -157 0
-181 125 157 0
182 -183 -287 0
-182 183 0
-182 287 0
-183 184 206 0
183 -184 0
183 -206 0
184 -185 -205 0
-184 185 0
-184 205 0
-185 186 200 0
185 -186 0
185 -200 0
186 -187 -199 0
-186 187 0
-186 199 0
-187 188 191 0
187 -188 0
187 -191 0
188 -744 -758 -189 0
-188 744 0
-188 758 0
-188 189 0
189 190 -176 0
189 -190 176 0
-189 -190 -176 0
-189 190 176 0
190 -745 -757 0
-190 745 0
-190 757 0
191 -192 -197 0
-191 192 0
-191 197 0
192 193 -194 0
192 -193 194 0
-192 -193 -194 0
-192 193 194 0
193 -750 -752 0
-193 750 0
-193 752 0
194 195 -196 0
194 -195 196 0
-194 -195 -196 0
-194 195 196 0
195 -748 -754 0
-195 748 0
-195 754 0
196 749 -144 0
196 -749 -753 144 0
-196 -749 -144 0
-196 749 144 0
-196 -749 753 0
197 189 -198 0
197 -189 198 0
-197 -189 -198 0
-197 189 198 0
198 -744 -758 0
-198 744 0
-198 758 0
199 173 -179 0
199 -173 179 0
-199 -173 -179 0
-199 173 179 0
200 -201 -204 0
-200 201 0
-200 204 0
-201 202 203 0
201 -202 0
201 -203 0
202 -195 -196 0
-202 195 0
-202 196 0
203 -193 -194 0
-203 193 0
-203 194 0
204 187 -199 0
204 -187 199 0
-204 -187 -199 0
-204 187 199 0
205 167 -180 0
205 -167 180 0
-205 -167 -180 0
-205 167 180 0
206 -207 -286 0
-206 207 0
-206 286 0
-207 208 229 0
207 -208 0
207 -229 0
208 -209 -228 0
-208 209 0
-208 228 0
-209 210 219 0
209 -210 0
209 -219 0
210 -211 -218 0
-210 211 0
-210 218 0
-211 212 215 0
211 -212 0
211 -215 0
212 -213 -214 0
-212 213 0
-212 214 0
213 -747 -754 0
-213 747 0
-213 754 0
214 145 -146 0
214 -145 146 0
-214 -145 -146 0
-214 145 146 0
215 -216 -217 0
-215 216 0
-215 217 0
216 -749 -752 0
-216 749 0
-216 752 0
217 213 -214 0
217 -213 214 0
-217 -213 -214 0
-217 213 214 0
218 192 -197 0
218 -192 197 0
-218 -192 -197 0
-218 192 197 0
219 -220 -227 0
-219 220 0
-219 227 0
-220 221 224 0
220 -221 0
220 -224 0
221 -222 -223 0
-221 222 0
-221 223 0
222 -744 -757 0
-222 744 0
-222 757 0
223 -746 -755 0
-223 746 0
-223 755 0
224 -225 -226 0
-224 225 0
-224 226 0
225 216 -217 0
225 -216 217 0
-225 -216 -217 0
-225 216 217 0
226 222 -223 0
226 -222 223 0
-226 -222 -223 0
-226 222 223 0
227 211 -218 0
227 -211 218 0
-227 -211 -218 0
-227 211 218 0
228 201 -204 0
228 -201 204 0
-228 -201 -204 0
-228 201 204 0
229 -230 -285 0
-229 230 0
-229 285 0
-230 231 245 0
230 -231 0
230 -245 0
231 -232 -244 0
-231 232 0
-231 244 0
-232 233 236 0
232 -233 0
232 -236 0
233 -234 -235 0
-233 234 0
-233 235 0
234 -745 -756 0
-234 745 0
-234 756 0
235 225 -226 0
235 -225 226 0
-235 -225 -226 0
-235 225 226 0
236 -237 -243 0
-236 237 0
-236 243 0
-237 238 241 0
237 -238 0
237 -241 0
238 -239 -240 0
-238 239 0
-238 240 0
239 -746 -754 0
-239 746 0
-239 754 0
240 747 -147 0
240 -747 -753 147 0
-240 -747 -147 0
-240 747 147 0
-240 -747 753 0
241 -748 -752 -242 0
-241 748 0
-241 752 0
-241 242 0
242 239 -240 0
242 -239 240 0
-242 -239 -240 0
-242 239 240 0
243 234 -235 0
243 -234 235 0
-243 -234 -235 0
-243 234 235 0
244 220 -227 0
244 -220 227 0
-244 -220 -227 0
-244 220 227 0
245 -246 -284 0
-245 246 0
-245 284 0
-246 247 257 0
246 -247 0
246 -257 0
247 -248 -256 0
-247 248 0
-247 256 0
-248 249 250 0
248 -249 0
248 -250 0
249 -744 -745 -755 -756 0
-249 756 0
-249 744 0
-249 755 0
-249 745 0
250 -251 -253 0
-250 251 0
-250 253 0
251 252 -242 0
251 -252 242 0
-251 -252 -242 0
-251 252 242 0
252 -748 -752 0
-252 748 0
-252 752 0
253 254 -255 0
253 -254 255 0
-253 -254 -255 0
-253 254 255 0
254 -744 -756 0
-254 744 0
-254 756 0
255 -745 -755 0
-255 745 0
-255 755 0
256 237 -243 0
256 -237 243 0
-256 -237 -243 0
-256 237 243 0
257 -258 -283 0
-257 258 0
-257 283 0
-258 259 268 0
258 -259 0
258 -268 0
259 -260 -267 0
-259 260 0
-259 267 0
-260 261 264 0
260 -261 0
260 -264 0
261 -262 -263 0
-261 262 0
-261 263 0
262 -747 -752 0
-262 747 0
-262 752 0
263 -745 -754 0
-263 745 0
-263 754 0
264 -265 -266 0
-264 265 0
-264 266 0
265 -745 -753 0
-265 745 0
-265 753 0
266 -744 -754 0
-266 744 0
-266 754 0
267 251 -253 0
267 -251 253 0
-267 -251 -253 0
-267 251 253 0
268 -269 -282 0
-268 269 0
-268 282 0
-269 270 273 0
269 -270 0
269 -273 0
270 -271 -272 0
-270 271 0
-270 272 0
-271 263 -264 0
-271 262 263 0
-271 262 -264 0
-271 -262 -263 264 0
271 262 -263 264 0
271 -262 263 264 0
271 -262 -263 -264 0
272 148 -149 0
272 -148 149 0
-272 -148 -149 0
-272 148 149 0
273 -274 -281 0
-273 274 0
-273 281 0
-274 275 278 0
274 -275 0
274 -278 0
275 -276 -277 0
-275 276 0
-275 277 0
276 -746 -752 0
-276 746 0
-276 752 0
277 265 -266 0
277 -265 266 0
-277 -265 -266 0
-277 265 266 0
278 -279 -280 0
-278 279 0
-278 280 0
279 276 -277 0
279 -276 277 0
-279 -276 -277 0
-279 276 277 0
280 -744 -745 -752 -753 0
-280 753 0
-280 744 0
-280 752 0
-280 745 0
281 271 -272 0
281 -271 272 0
-281 -271 -272 0
-281 271 272 0
282 260 -267 0
282 -260 267 0
-282 -260 -267 0
-282 260 267 0
283 248 -256 0
283 -248 256 0
-283 -248 -256 0
-283 248 256 0
284 232 -244 0
284 -232 244 0
-284 -232 -244 0
-284 232 244 0
285 209 -228 0
285 -209 228 0
-285 -209 -228 0
-285 209 228 0
286 185 -205 0
286 -185 205 0
-286 -185 -205 0
-286 185 205 0
287 162 -181 0
287 -162 181 0
-287 -162 -181 0
-287 162 181 0
288 118 -158 0
288 -118 158 0
-288 -118 -158 0
-288 118 158 0
289 79 -114 0
289 -79 114 0
-289 -79 -114 0
-289 79 114 0
290 44 -75 0
290 -44 75 0
-290 -44 -75 0
-290 44 75 0
291 17 -40 0
291 -17 40 0
-291 -17 -40 0
-291 17 40 0
292 293 -7 0
292 -293 6 7 0
-292 -6 7 0
-292 -293 -7 0
-292 293 7 0
293 -751 -759 0
-293 751 0
-293 759 0
294 -295 581 0
294 295 -581 0
-294 295 581 0
-294 -295 -581 0
-295 296 509 0
295 -296 0
295 -509 0
296 -297 -507 0
-296 297 0
-296 507 0
-297 -298 -440 0
-297 298 440 0
297 298 -440 0
297 -298 440 0
-298 299 439 0
298 -299 0
298 -439 0
299 -4 300 0
-299 4 0
-299 -300 0
-300 -301 -302 0
-300 301 302 0
300 301 -302 0
300 -301 302 0
301 -12 -13 0
-301 12 0
-301 13 0
302 -303 -438 0
-302 303 0
-302 438 0
-303 304 311 0
303 -304 0
303 -311 0
304 -305 -310 0
-304 305 0
-304 310 0
305 -306 -309 0
-305 306 0
-305 309 0
306 -307 -308 0
-306 307 0
-306 308 0
-307 749 23 0
-307 758 23 0
307 -23 0
307 -749 -758 0
-308 750 24 0
-308 757 24 0
308 -24 0
308 -750 -757 0
-309 749 6 9 0
-309 759 6 9 0
309 -9 0
309 -6 0
309 -749 -759 0
310 12 -13 0
310 -12 13 0
-310 -12 -13 0
-310 12 13 0
311 -312 -437 0
-311 312 0
-311 437 0
-312 313 322 0
312 -313 0
312 -322 0
313 -314 -321 0
-313 314 0
-313 321 0
314 -315 -320 0
-314 315 0
-314 320 0
315 -316 -318 0
-315 316 0
-315 318 0
-316 747 52 317 0
-316 759 52 317 0
316 -317 0
316 -52 0
316 -747 -759 0
317 -65 -71 0
-317 65 0
-317 71 0
-318 35 36 61 319 0
318 -319 0
318 -61 0
318 -35 0
318 -36 0
319 -750 -754 -107 0
-319 750 0
-319 754 0
-319 107 0
320 -307 308 0
320 307 -308 0
-320 307 308 0
-320 -307 -308 0
321 -306 309 0
321 306 -309 0
-321 306 309 0
-321 -306 -309 0
322 -323 -436 0
-322 323 0
-322 436 0
-323 324 342 0
323 -324 0
323 -342 0
324 -325 -341 0
-324 325 0
-324 341 0
325 -326 -340 0
-325 326 0
-325 340 0
-326 327 337 0
326 -327 0
326 -337 0
327 -328 -335 0
-327 328 0
-327 335 0
-328 329 332 0
328 -329 0
328 -332 0
329 -59 -330 0
-329 59 0
-329 330 0
330 331 -107 0
330 -331 107 0
-330 -331 -107 0
-330 331 107 0
331 -750 -754 0
-331 750 0
-331 754 0
332 -333 -334 0
-332 333 0
-332 334 0
-333 749 98 111 0
-333 755 98 111 0
333 -111 0
333 -98 0
333 -749 -755 0
334 59 -330 0
334 -59 330 0
-334 -59 -330 0
-334 59 330 0
-335 754 336 0
-335 751 336 0
-335 -139 336 0
335 -336 0
335 -751 -754 139 0
-336 -65 -71 86 0
-336 65 71 86 0
336 -86 0
336 -65 71 0
336 65 -71 0
337 -338 -339 0
-337 338 0
-337 339 0
-338 747 58 0
-338 758 58 0
338 -58 0
338 -747 -758 0
339 -328 335 0
339 328 -335 0
-339 328 335 0
-339 -328 -335 0
340 -316 318 0
340 316 -318 0
-340 316 318 0
-340 -316 -318 0
341 315 -320 0
341 -315 320 0
-341 -315 -320 0
-341 315 320 0
342 -343 -435 0
-342 343 0
-342 435 0
-343 344 361 0
343 -344 0
343 -361 0
344 -345 -360 0
-344 345 0
-344 360 0
345 -346 -359 0
-345 346 0
-345 359 0
-346 347 353 0
346 -347 0
346 -353 0
347 -348 -352 0
-347 348 0
-347 352 0
348 -349 -351 0
-348 349 0
-348 351 0
-349 193 350 0
-349 195 350 0
-349 193 195 0
349 -193 -195 0
349 -195 -350 0
349 -193 -350 0
350 -749 -753 0
-350 749 0
-350 753 0
-351 749 138 0
-351 754 138 0
351 -138 0
351 -749 -754 0
352 333 -334 0
352 -333 334 0
-352 -333 -334 0
-352 333 334 0
353 -354 -358 0
-353 354 0
-353 358 0
-354 102 96 355 356 0
354 -356 0
354 -355 0
354 -102 0
354 -96 0
355 -129 -142 0
-355 129 0
-355 142 0
356 -135 -357 0
-356 135 0
-356 357 0
357 129 -142 0
357 -129 142 0
-357 -129 -142 0
-357 129 142 0
358 348 -352 0
358 -348 352 0
-358 -348 -352 0
-358 348 352 0
359 338 -339 0
359 -338 339 0
-359 -338 -339 0
-359 338 339 0
360 326 -340 0
360 -326 340 0
-360 -326 -340 0
-360 326 340 0
361 -362 -434 0
-361 362 0
-361 434 0
-362 363 380 0
362 -363 0
362 -380 0
363 -364 -379 0
-363 364 0
-363 379 0
364 -365 -378 0
-364 365 0
-364 378 0
-365 366 375 0
365 -366 0
365 -375 0
366 -367 -374 0
-366 367 0
-366 374 0
-367 368 372 0
367 -368 0
367 -372 0
368 -369 -370 0
-368 369 0
-368 370 0
-369 145 216 0
-369 213 216 0
-369 145 213 0
369 -145 -213 0
369 -213 -216 0
369 -145 -216 0
370 195 -371 0
370 -195 371 0
-370 -195 -371 0
-370 195 371 0
371 193 -350 0
371 -193 350 0
-371 -193 -350 0
-371 193 350 0
372 -189 -373 0
-372 189 0
-372 373 0
373 369 -370 0
373 -369 370 0
-373 -369 -370 0
-373 369 370 0
-374 -135 -349 -351 -357 0
-374 -135 349 351 -357 0
-374 135 -349 -351 357 0
-374 135 349 351 357 0
374 135 -357 0
374 -135 357 0
374 349 -351 0
374 -349 351 0
375 -376 -377 0
-375 376 0
-375 377 0
-376 758 151 173 0
-376 745 151 173 0
376 -173 0
376 -151 0
376 -745 -758 0
377 -367 374 0
377 367 -374 0
-377 367 374 0
-377 -367 -374 0
378 354 -358 0
378 -354 358 0
-378 -354 -358 0
-378 354 358 0
379 346 -359 0
379 -346 359 0
-379 -346 -359 0
-379 346 359 0
380 -381 -433 0
-380 381 0
-380 433 0
-381 382 403 0
381 -382 0
381 -403 0
382 -383 -402 0
-382 383 0
-382 402 0
383 -384 -401 0
-383 384 0
-383 401 0
-384 385 396 0
384 -385 0
384 -396 0
385 -386 -395 0
-385 386 0
-385 395 0
-386 387 391 0
386 -387 0
386 -391 0
387 -388 -389 0
-387 388 0
-387 389 0
388 -747 -748 -752 -753 0
-388 753 0
-388 747 0
-388 752 0
-388 748 0
389 213 -390 0
389 -213 390 0
-389 -213 -390 0
-389 213 390 0
390 145 -216 0
390 -145 216 0
-390 -145 -216 0
-390 145 216 0
391 -392 -394 0
-391 392 0
-391 394 0
392 222 -393 0
392 -222 393 0
-392 -222 -393 0
-392 222 393 0
393 223 -234 0
393 -223 234 0
-393 -223 -234 0
-393 223 234 0
394 388 -389 0
394 -388 389 0
-394 -388 -389 0
-394 388 389 0
395 189 -373 0
395 -189 373 0
-395 -189 -373 0
-395 189 373 0
396 -397 -400 0
-396 397 0
-396 400 0
-397 744 398 399 0
-397 758 398 399 0
397 -399 0
397 -398 0
397 -744 -758 0
398 -223 -234 0
-398 223 0
-398 234 0
399 -222 -393 0
-399 222 0
-399 393 0
400 386 -395 0
400 -386 395 0
-400 -386 -395 0
-400 386 395 0
401 376 -377 0
401 -376 377 0
-401 -376 -377 0
-401 376 377 0
402 365 -378 0
402 -365 378 0
-402 -365 -378 0
-402 365 378 0
403 -404 -432 0
-403 404 0
-403 432 0
-404 405 417 0
404 -405 0
404 -417 0
405 -406 -416 0
-405 406 0
-405 416 0
406 -407 -415 0
-406 407 0
-406 415 0
407 -408 -414 0
-407 408 0
-407 414 0
-408 409 411 0
408 -409 0
408 -411 0
409 -239 -410 0
-409 239 0
-409 410 0
-410 148 263 0
-410 262 263 0
-410 148 262 0
410 -148 -262 0
410 -262 -263 0
410 -148 -263 0
411 -412 -413 0
-411 412 0
-411 413 0
-412 745 254 0
-412 755 254 0
412 -254 0
412 -745 -755 0
413 -239 410 0
413 239 -410 0
-413 239 410 0
-413 -239 -410 0
414 392 -394 0
414 -392 394 0
-414 -392 -394 0
-414 392 394 0
415 397 -400 0
415 -397 400 0
-415 -397 -400 0
-415 397 400 0
416 384 -401 0
416 -384 401 0
-416 -384 -401 0
-416 384 401 0
417 -418 -431 0
-417 418 0
-417 431 0
418 -419 -430 0
-418 419 0
-418 430 0
419 -420 -429 0
-419 420 0
-419 429 0
420 -421 -428 0
-420 421 0
-420 428 0
-421 422 426 0
421 -422 0
421 -426 0
422 -423 -424 0
-422 423 0
-422 424 0
-423 265 276 0
-423 266 276 0
-423 265 266 0
423 -265 -266 0
423 -266 -276 0
423 -265 -276 0
424 263 -425 0
424 -263 425 0
-424 -263 -425 0
-424 263 425 0
425 148 -262 0
425 -148 262 0
-425 -148 -262 0
-425 148 262 0
426 -149 -427 0
-426 149 0
-426 427 0
427 423 -424 0
427 -423 424 0
-427 -423 -424 0
-427 423 424 0
428 412 -413 0
428 -412 413 0
-428 -412 -413 0
-428 412 413 0
429 408 -414 0
429 -408 414 0
-429 -408 -414 0
-429 408 414 0
430 407 -415 0
430 -407 415 0
-430 -407 -415 0
-430 407 415 0
431 406 -416 0
431 -406 416 0
-431 -406 -416 0
-431 406 416 0
432 383 -402 0
432 -383 402 0
-432 -383 -402 0
-432 383 402 0
433 364 -379 0
433 -364 379 0
-433 -364 -379 0
-433 364 379 0
434 345 -360 0
434 -345 360 0
-434 -345 -360 0
-434 345 360 0
435 325 -341 0
435 -325 341 0
-435 -325 -341 0
-435 325 341 0
436 314 -321 0
436 -314 321 0
-436 -314 -321 0
-436 314 321 0
437 305 -310 0
437 -305 310 0
-437 -305 -310 0
-437 305 310 0
438 -751 -759 6 0
-438 751 0
-438 759 0
-438 -6 0
439 4 -300 0
-439 -4 0
-439 300 0
440 -441 506 0
440 -444 506 0
-440 -506 0
-440 441 444 0
441 -442 443 0
-441 442 0
-441 -443 0
442 303 -438 0
442 -303 438 0
-442 -303 -438 0
-442 303 438 0
443 15 -292 0
443 -15 292 0
-443 -15 -292 0
-443 15 292 0
444 -445 505 0
-444 445 0
-444 -505 0
-445 446 502 0
445 -446 0
445 -502 0
446 -447 501 0
446 -450 501 0
-446 -501 0
-446 447 450 0
447 -448 449 0
-447 448 0
-447 -449 0
448 323 -436 0
448 -323 436 0
-448 -323 -436 0
-448 323 436 0
449 77 -290 0
449 -77 290 0
-449 -77 -290 0
-449 77 290 0
450 -451 500 0
450 -454 500 0
-450 -500 0
-450 451 454 0
451 -452 453 0
-451 452 0
-451 -453 0
452 343 -435 0
452 -343 435 0
-452 -343 -435 0
-452 343 435 0
453 116 -289 0
453 -116 289 0
-453 -116 -289 0
-453 116 289 0
454 -455 499 0
454 -458 499 0
-454 -499 0
-454 455 458 0
455 -456 457 0
-455 456 0
-455 -457 0
456 362 -434 0
456 -362 434 0
-456 -362 -434 0
-456 362 434 0
457 160 -288 0
457 -160 288 0
-457 -160 -288 0
-457 160 288 0
458 -459 498 0
458 -462 498 0
-458 -498 0
-458 459 462 0
459 -460 461 0
-459 460 0
-459 -461 0
460 381 -433 0
460 -381 433 0
-460 -381 -433 0
-460 381 433 0
461 183 -287 0
461 -183 287 0
-461 -183 -287 0
-461 183 287 0
462 -463 497 0
462 -466 497 0
-462 -497 0
-462 463 466 0
463 -464 465 0
-463 464 0
-463 -465 0
464 404 -432 0
464 -404 432 0
-464 -404 -432 0
-464 404 432 0
465 207 -286 0
465 -207 286 0
-465 -207 -286 0
-465 207 286 0
466 -467 496 0
466 -470 496 0
-466 -496 0
-466 467 470 0
467 -468 469 0
-467 468 0
-467 -469 0
468 418 -431 0
468 -418 431 0
-468 -418 -431 0
-468 418 431 0
469 230 -285 0
469 -230 285 0
-469 -230 -285 0
-469 230 285 0
470 -471 495 0
470 -474 495 0
-470 -495 0
-470 471 474 0
471 -472 473 0
-471 472 0
-471 -473 0
472 419 -430 0
472 -419 430 0
-472 -419 -430 0
-472 419 430 0
473 246 -284 0
473 -246 284 0
-473 -246 -284 0
-473 246 284 0
474 -475 494 0
474 -478 494 0
-474 -494 0
-474 475 478 0
475 -476 477 0
-475 476 0
-475 -477 0
-476 -420 -429 0
-476 420 429 0
476 420 -429 0
476 -420 429 0
477 258 -283 0
477 -258 283 0
-477 -258 -283 0
-477 258 283 0
478 -479 493 0
478 -482 493 0
-478 -493 0
-478 479 482 0
479 -480 481 0
-479 480 0
-479 -481 0
480 421 -428 0
480 -421 428 0
-480 -421 -428 0
-480 421 428 0
481 269 -282 0
481 -269 282 0
-481 -269 -282 0
-481 269 282 0
482 -483 492 0
482 -486 492 0
-482 -492 0
-482 483 486 0
483 -484 485 0
-483 484 0
-483 -485 0
484 149 -427 0
484 -149 427 0
-484 -149 -427 0
-484 149 427 0
485 274 -281 0
485 -274 281 0
-485 -274 -281 0
-485 274 281 0
486 -487 -490 0
486 -487 489 0
486 489 -490 0
-486 -489 490 0
-486 487 490 0
-486 487 -489 0
487 266 -488 0
487 -266 488 0
-487 -266 -488 0
-487 266 488 0
488 265 -276 0
488 -265 276 0
-488 -265 -276 0
-488 265 276 0
489 279 -280 0
489 -279 280 0
-489 -279 -280 0
-489 279 280 0
490 -491 0
-490 491 0
491 -744 -745 -752 -753 0
-491 753 0
-491 744 0
-491 752 0
-491 745 0
492 484 -485 0
-492 -484 0
-492 485 0
493 480 -481 0
-493 -480 0
-493 481 0
494 476 -477 0
-494 -476 0
-494 477 0
495 472 -473 0
-495 -472 0
-495 473 0
496 468 -469 0
-496 -468 0
-496 469 0
497 464 -465 0
-497 -464 0
-497 465 0
498 460 -461 0
-498 -460 0
-498 461 0
499 456 -457 0
-499 -456 0
-499 457 0
500 452 -453 0
-500 -452 0
-500 453 0
501 448 -449 0
-501 -448 0
-501 449 0
502 -503 504 0
-502 503 0
-502 -504 0
503 312 -437 0
503 -312 437 0
-503 -312 -437 0
-503 312 437 0
504 42 -291 0
504 -42 291 0
-504 -42 -291 0
-504 42 291 0
505 503 -504 0
-505 -503 0
-505 504 0
506 442 -443 0
-506 -442 0
-506 443 0
507 -446 508 0
507 446 -508 0
-507 446 508 0
-507 -446 -508 0
-508 502 505 0
508 -502 0
508 -505 0
509 -510 -580 0
-509 510 0
-509 580 0
-510 511 516 0
510 -511 0
510 -516 0
511 -512 -514 0
-511 512 0
-511 514 0
512 -450 513 0
512 450 -513 0
-512 450 513 0
-512 -450 -513 0
-513 447 501 0
513 -447 0
513 -501 0
514 -444 515 0
514 444 -515 0
-514 444 515 0
-514 -444 -515 0
-515 441 506 0
515 -441 0
515 -506 0
516 -517 -579 0
-516 517 0
-516 579 0
-517 518 521 0
517 -518 0
517 -521 0
518 -507 -519 0
-518 507 0
-518 519 0
519 -454 520 0
519 454 -520 0
-519 454 520 0
-519 -454 -520 0
-520 451 500 0
520 -451 0
520 -500 0
521 -522 -578 0
-521 522 0
-521 578 0
-522 523 526 0
522 -523 0
522 -526 0
523 -512 -524 0
-523 512 0
-523 524 0
524 -458 525 0
524 458 -525 0
-524 458 525 0
-524 -458 -525 0
-525 455 499 0
525 -455 0
525 -499 0
526 -527 -577 0
-526 527 0
-526 577 0
-527 528 531 0
527 -528 0
527 -531 0
528 -519 -529 0
-528 519 0
-528 529 0
529 -462 530 0
529 462 -530 0
-529 462 530 0
-529 -462 -530 0
-530 459 498 0
530 -459 0
530 -498 0
531 -532 -576 0
-531 532 0
-531 576 0
-532 533 536 0
532 -533 0
532 -536 0
533 -524 -534 0
-533 524 0
-533 534 0
534 -466 535 0
534 466 -535 0
-534 466 535 0
-534 -466 -535 0
-535 463 497 0
535 -463 0
535 -497 0
536 -537 -575 0
-536 537 0
-536 575 0
-537 538 541 0
537 -538 0
537 -541 0
538 -529 -539 0
-538 529 0
-538 539 0
539 -470 540 0
539 470 -540 0
-539 470 540 0
-539 -470 -540 0
-540 467 496 0
540 -467 0
540 -496 0
541 -542 -574 0
-541 542 0
-541 574 0
-542 543 546 0
542 -543 0
542 -546 0
543 -534 -544 0
-543 534 0
-543 544 0
544 -474 545 0
544 474 -545 0
-544 474 545 0
-544 -474 -545 0
-545 471 495 0
545 -471 0
545 -495 0
546 -547 -573 0
-546 547 0
-546 573 0
-547 548 551 0
547 -548 0
547 -551 0
548 -539 -549 0
-548 539 0
-548 549 0
549 -478 550 0
549 478 -550 0
-549 478 550 0
-549 -478 -550 0
-550 475 494 0
550 -475 0
550 -494 0
551 -552 -572 0
-551 552 0
-551 572 0
-552 553 556 0
552 -553 0
552 -556 0
553 -544 -554 0
-553 544 0
-553 554 0
554 -482 555 0
554 482 -555 0
-554 482 555 0
-554 -482 -555 0
-555 479 493 0
555 -479 0
555 -493 0
556 -557 -571 0
-556 557 0
-556 571 0
-557 558 561 0
557 -558 0
557 -561 0
558 -549 -559 0
-558 549 0
-558 559 0
559 -486 560 0
559 486 -560 0
-559 486 560 0
-559 -486 -560 0
-560 483 492 0
560 -483 0
560 -492 0
561 -562 -570 0
-561 562 0
-561 570 0
-562 563 566 0
562 -563 0
562 -566 0
563 -554 -564 0
-563 554 0
-563 564 0
564 -490 565 0
564 490 -565 0
-564 490 565 0
-564 -490 -565 0
-565 280 0
565 -280 0
566 -567 -569 0
-566 567 0
-566 569 0
567 -559 -568 0
-567 559 0
-567 568 0
-568 491 0
568 -491 0
569 554 -564 0
569 -554 564 0
-569 -554 -564 0
-569 554 564 0
570 549 -559 0
570 -549 559 0
-570 -549 -559 0
-570 549 559 0
571 544 -554 0
571 -544 554 0
-571 -544 -554 0
-571 544 554 0
572 539 -549 0
572 -539 549 0
-572 -539 -549 0
-572 539 549 0
573 534 -544 0
573 -534 544 0
-573 -534 -544 0
-573 534 544 0
574 529 -539 0
574 -529 539 0
-574 -529 -539 0
-574 529 539 0
575 524 -534 0
575 -524 534 0
-575 -524 -534 0
-575 524 534 0
576 519 -529 0
576 -519 529 0
-576 -519 -529 0
-576 519 529 0
577 512 -524 0
577 -512 524 0
-577 -512 -524 0
-577 512 524 0
578 507 -519 0
578 -507 519 0
-578 -507 -519 0
-578 507 519 0
579 512 -514 0
579 -512 514 0
-579 -512 -514 0
-579 512 514 0
580 297 -507 0
580 -297 507 0
-580 -297 -507 0
-580 297 507 0
-581 -514 -582 0
-581 514 582 0
581 514 -582 0
581 -514 582 0
582 299 -583 0
-582 -299 0
-582 583 0
-583 439 440 0
583 -439 0
583 -440 0
584 -585 -586 0
584 443 -586 0
-584 586 0
-584 -443 585 0
585 510 -580 0
585 -510 580 0
-585 -510 -580 0
-585 510 580 0
-586 -504 587 614 0
-586 -504 588 614 0
-586 587 588 614 0
586 504 -587 0
586 -587 -588 0
586 -614 0
586 504 -588 0
587 517 -579 0
587 -517 579 0
-587 -517 -579 0
-587 517 579 0
588 -589 -590 0
588 449 -590 0
-588 590 0
-588 -449 589 0
589 522 -578 0
589 -522 578 0
-589 -522 -578 0
-589 522 578 0
-590 -453 591 613 0
-590 -453 592 613 0
-590 591 592 613 0
590 -591 -592 0
590 453 -592 0
590 -613 0
590 453 -591 0
591 527 -577 0
591 -527 577 0
-591 -527 -577 0
-591 527 577 0
-592 -457 594 0
-592 -457 593 0
-592 593 594 0
592 -593 -594 0
592 457 -594 0
592 457 -593 0
593 532 -576 0
593 -532 576 0
-593 -532 -576 0
-593 532 576 0
-594 -461 596 0
-594 -461 595 0
-594 595 596 0
594 -595 -596 0
594 461 -596 0
594 461 -595 0
595 537 -575 0
595 -537 575 0
-595 -537 -575 0
-595 537 575 0
-596 -465 598 0
-596 -465 597 0
-596 597 598 0
596 -597 -598 0
596 465 -598 0
596 465 -597 0
597 542 -574 0
597 -542 574 0
-597 -542 -574 0
-597 542 574 0
-598 -469 600 0
-598 -469 599 0
-598 599 600 0
598 -599 -600 0
598 469 -600 0
598 469 -599 0
599 547 -573 0
599 -547 573 0
-599 -547 -573 0
-599 547 573 0
-600 -473 602 0
-600 -473 601 0
-600 601 602 0
600 -601 -602 0
600 473 -602 0
600 473 -601 0
601 552 -572 0
601 -552 572 0
-601 -552 -572 0
-601 552 572 0
-602 -477 603 0
-602 -477 -557 -571 0
-602 557 571 603 0
-602 -477 557 571 0
-602 -557 -571 603 0
602 477 -603 0
602 557 -571 -603 0
602 477 557 -571 0
602 -557 571 -603 0
602 477 -557 571 0
-603 -481 604 0
-603 604 612 0
-603 -481 612 0
603 -604 -612 0
603 481 -604 0
603 481 -612 0
-604 -485 606 0
-604 -485 605 0
-604 605 606 0
604 -605 -606 0
604 485 -606 0
604 485 -605 0
605 567 -569 0
605 -567 569 0
-605 -567 -569 0
-605 567 569 0
-606 -489 608 0
-606 -489 607 0
-606 607 608 0
606 -607 -608 0
606 489 -608 0
606 489 -607 0
607 -559 568 0
607 559 -568 0
-607 559 568 0
-607 -559 -568 0
-608 280 491 0
-608 -280 -491 -611 0
-608 -609 -491 -611 0
608 -280 491 0
608 -491 611 0
608 280 609 -491 0
-609 745 610 0
-609 752 610 0
609 -610 0
609 -745 -752 0
610 -744 -753 0
-610 744 0
-610 753 0
611 -744 -752 0
-611 744 0
-611 752 0
612 562 -570 0
612 -562 570 0
-612 -562 -570 0
-612 562 570 0
613 449 -589 0
-613 -449 0
-613 589 0
614 443 -585 0
-614 -443 0
-614 585 0
-615 616 582 617 0
615 -616 0
615 -617 0
615 -582 0
616 -298 440 0
-616 298 0
-616 -440 0
617 -295 -581 0
-617 295 0
-617 581 0
-618 -504 619 724 0
-618 -504 716 724 0
-618 619 716 724 0
618 -619 -716 0
618 504 -619 0
618 -724 0
618 504 -716 0
-619 -449 694 0
-619 -449 620 0
-619 620 694 0
619 -620 -694 0
619 449 -694 0
619 449 -620 0
620 -621 646 0
620 621 -646 0
-620 621 646 0
-620 -621 -646 0
621 622 -641 0
621 -622 641 0
-621 -622 -641 0
-621 622 641 0
622 520 -623 0
622 -520 623 0
-622 -520 -623 0
-622 520 623 0
623 455 -624 0
-623 -455 0
-623 624 0
-624 499 625 0
624 -499 0
624 -625 0
625 459 -626 0
-625 -459 0
-625 626 0
-626 498 627 0
626 -498 0
626 -627 0
627 463 -628 0
-627 -463 0
-627 628 0
-628 497 629 0
628 -497 0
628 -629 0
629 467 -630 0
-629 -467 0
-629 630 0
-630 496 631 0
630 -496 0
630 -631 0
631 471 -632 0
-631 -471 0
-631 632 0
-632 495 633 0
632 -495 0
632 -633 0
633 475 -634 0
-633 -475 0
-633 634 0
-634 494 635 0
634 -494 0
634 -635 0
635 479 -493 0
635 479 -636 0
-635 -479 0
-635 493 636 0
636 483 -637 0
-636 -483 0
-636 637 0
-637 492 638 0
637 -492 0
637 -638 0
638 639 -640 0
-638 -639 0
-638 640 0
639 -487 489 0
-639 487 0
-639 -489 0
640 487 -489 0
-640 -487 0
-640 489 0
641 508 -642 0
641 -508 642 0
-641 -508 -642 0
-641 508 642 0
642 447 -643 0
-642 -447 0
-642 643 0
-643 501 644 0
643 -501 0
643 -644 0
644 451 -645 0
-644 -451 0
-644 645 0
-645 500 623 0
645 -500 0
645 -623 0
-646 647 650 0
646 -647 0
646 -650 0
647 -648 -649 0
-647 648 0
-647 649 0
648 513 -644 0
648 -513 644 0
-648 -513 -644 0
-648 513 644 0
649 525 -625 0
649 -525 625 0
-649 -525 -625 0
-649 525 625 0
650 -651 -693 0
-650 651 0
-650 693 0
-651 652 654 0
651 -652 0
651 -654 0
652 -622 -653 0
-652 622 0
-652 653 0
653 530 -627 0
653 -530 627 0
-653 -530 -627 0
-653 530 627 0
654 -655 -692 0
-654 655 0
-654 692 0
-655 656 658 0
655 -656 0
655 -658 0
656 -649 -657 0
-656 649 0
-656 657 0
657 535 -629 0
657 -535 629 0
-657 -535 -629 0
-657 535 629 0
658 -659 -691 0
-658 659 0
-658 691 0
-659 660 662 0
659 -660 0
659 -662 0
660 -653 -661 0
-660 653 0
-660 661 0
661 540 -631 0
661 -540 631 0
-661 -540 -631 0
-661 540 631 0
662 -663 -690 0
-662 663 0
-662 690 0
-663 664 666 0
663 -664 0
663 -666 0
664 -657 -665 0
-664 657 0
-664 665 0
665 545 -633 0
665 -545 633 0
-665 -545 -633 0
-665 545 633 0
666 -667 -689 0
-666 667 0
-666 689 0
-667 668 670 0
667 -668 0
667 -670 0
668 -661 -669 0
-668 661 0
-668 669 0
669 550 -635 0
669 -550 635 0
-669 -550 -635 0
-669 550 635 0
670 -671 -688 0
-670 671 0
-670 688 0
-671 672 674 0
671 -672 0
671 -674 0
672 -665 -673 0
-672 665 0
-672 673 0
673 555 -636 0
673 -555 636 0
-673 -555 -636 0
-673 555 636 0
674 -675 -687 0
-674 675 0
-674 687 0
-675 676 678 0
675 -676 0
675 -678 0
676 -669 -677 0
-676 669 0
-676 677 0
677 560 -638 0
677 -560 638 0
-677 -560 -638 0
-677 560 638 0
678 -679 -686 0
-678 679 0
-678 686 0
-679 680 683 0
679 -680 0
679 -683 0
680 -673 -681 0
-680 673 0
-680 681 0
681 -682 0
-681 682 0
-682 565 0
682 -565 0
683 -684 -685 0
-683 684 0
-683 685 0
684 -568 -677 0
-684 568 0
-684 677 0
685 673 -681 0
685 -673 681 0
-685 -673 -681 0
-685 673 681 0
686 669 -677 0
686 -669 677 0
-686 -669 -677 0
-686 669 677 0
687 665 -673 0
687 -665 673 0
-687 -665 -673 0
-687 665 673 0
688 661 -669 0
688 -661 669 0
-688 -661 -669 0
-688 661 669 0
689 657 -665 0
689 -657 665 0
-689 -657 -665 0
-689 657 665 0
690 653 -661 0
690 -653 661 0
-690 -653 -661 0
-690 653 661 0
691 649 -657 0
691 -649 657 0
-691 -649 -657 0
-691 649 657 0
692 622 -653 0
692 -622 653 0
-692 -622 -653 0
-692 622 653 0
693 648 -649 0
693 -648 649 0
-693 -648 -649 0
-693 648 649 0
-694 -453 696 0
-694 -453 695 0
-694 695 696 0
694 -695 -696 0
694 453 -696 0
694 453 -695 0
695 651 -693 0
695 -651 693 0
-695 -651 -693 0
-695 651 693 0
-696 -457 698 0
-696 -457 697 0
-696 697 698 0
696 -697 -698 0
696 457 -698 0
696 457 -697 0
697 655 -692 0
697 -655 692 0
-697 -655 -692 0
-697 655 692 0
-698 -461 700 0
-698 -461 699 0
-698 699 700 0
698 -699 -700 0
698 461 -700 0
698 461 -699 0
699 659 -691 0
699 -659 691 0
-699 -659 -691 0
-699 659 691 0
-700 -465 702 0
-700 -465 701 0
-700 701 702 0
700 -701 -702 0
700 465 -702 0
700 465 -701 0
701 663 -690 0
701 -663 690 0
-701 -663 -690 0
-701 663 690 0
-702 -469 704 0
-702 -469 703 0
-702 703 704 0
702 -703 -704 0
702 469 -704 0
702 469 -703 0
703 667 -689 0
703 -667 689 0
-703 -667 -689 0
-703 667 689 0
-704 -473 706 0
-704 -473 705 0
-704 705 706 0
704 -705 -706 0
704 473 -706 0
704 473 -705 0
705 671 -688 0
705 -671 688 0
-705 -671 -688 0
-705 671 688 0
-706 -477 707 0
-706 -477 -675 -687 0
-706 675 687 707 0
-706 -477 675 687 0
-706 -675 -687 707 0
706 477 -707 0
706 675 -687 -707 0
706 477 675 -687 0
706 -675 687 -707 0
706 477 -675 687 0
-707 -481 708 0
-707 708 715 0
-707 -481 715 0
707 -708 -715 0
707 481 -708 0
707 481 -715 0
-708 -485 710 0
-708 -485 709 0
-708 709 710 0
708 -709 -710 0
708 485 -710 0
708 485 -709 0
709 684 -685 0
709 -684 685 0
-709 -684 -685 0
-709 684 685 0
-710 -489 712 0
-710 -489 711 0
-710 711 712 0
710 -711 -712 0
710 489 -712 0
710 489 -711 0
711 568 -677 0
711 -568 677 0
-711 -568 -677 0
-711 568 677 0
-712 681 714 0
-712 -713 681 0
-712 -713 714 0
712 713 -681 0
712 -681 -714 0
712 713 -714 0
713 280 -609 0
-713 -280 0
-713 609 0
714 744 -568 0
714 752 -568 0
-714 568 0
-714 -744 -752 0
715 679 -686 0
715 -679 686 0
-715 -679 -686 0
-715 679 686 0
716 -717 721 0
716 717 -721 0
-716 717 721 0
-716 -717 -721 0
717 648 -718 0
717 -648 718 0
-717 -648 -718 0
-717 648 718 0
718 515 -719 0
718 -515 719 0
-718 -515 -719 0
-718 515 719 0
719 502 -720 0
-719 -502 0
-719 720 0
-720 505 642 0
720 -505 0
720 -642 0
-721 722 723 0
721 -722 0
721 -723 0
722 -622 -641 0
-722 622 0
-722 641 0
723 -621 -646 0
-723 621 0
-723 646 0
724 443 -725 0
-724 -443 0
-724 725 0
725 -726 730 0
725 726 -730 0
-725 726 730 0
-725 -726 -730 0
726 641 -727 0
726 -641 727 0
-726 -641 -727 0
-726 641 727 0
727 298 -728 0
727 -298 728 0
-727 -298 -728 0
-727 298 728 0
728 441 -729 0
-728 -441 0
-728 729 0
-729 506 719 0
729 -506 0
729 -719 0
-730 731 732 0
730 -731 0
730 -732 0
731 -648 -718 0
-731 648 0
-731 718 0
732 -717 -721 0
-732 717 0
-732 721 0
-733 4 443 0
-733 -725 -734 0
-733 443 -734 0
-733 4 -725 0
733 -443 725 0
733 -4 734 0
734 -735 738 0
734 735 -738 0
-734 735 738 0
-734 -735 -738 0
735 -718 736 0
735 718 -736 0
-735 718 736 0
-735 -718 -736 0
-736 299 737 0
736 -299 0
736 -737 0
737 439 -728 0
-737 -439 0
-737 728 0
-738 739 740 0
738 -739 0
738 -740 0
739 -641 -727 0
-739 641 0
-739 727 0
740 -726 -730 0
-740 726 0
-740 730 0
741 -4 735 -742 0
741 -4 738 -742 0
741 735 738 -742 0
-741 4 -735 0
-741 -735 -738 0
-741 742 0
-741 4 -738 0
742 -743 728 0
742 -439 -728 0
-742 743 728 0
-742 439 -728 0
743 298 -440 0
-743 -298 0
-743 440 0
-760 0
2 0

